p cnf 19 11
e 1 0
a 2 0
e 3 0
a 4 0
e 5 0
a 6 7 8 9 10 0
e 11 12 0
a 13 14 0
e 15 16 17 18 19 0
-12 -11 10 19 1 0
-19 -7 15 -9 0
-16 7 18 -10 9 0
12 5 17 -7 0
-19 15 -4 -14 -16 0
16 -10 -17 2 0
-12 -5 4 6 -16 0
-18 -16 -13 -6 7 0
-11 -15 -13 0
17 -11 0
-1 6 19 7 0
